% demand
num_movements = 48;
loading_factor = [1500, 1200, 1500, 1550, 1650, 1850, 1050, 1850, 1700, 950, 1200, 1950, 1750, 900, 1350, 1500, 2000, 1400, 950, 1850, 1800, 1550, 1350, 1900, 800, 1850, 1550, 1800, 850, 1100, 1550, 800, 850, 1550, 1450, 1650, 1500, 1550, 800, 1750, 1150, 1400, 1800, 1800, 1300, 1000, 1400, 1200];
pickup_time = [0, 0, 0, 0, 0, 0, 0, 1, 1, 1, 2, 3, 3, 3, 3, 3, 3, 3, 4, 4, 5, 5, 5, 5, 6, 6, 6, 6, 8, 8, 8, 8, 8, 8, 8, 9, 10, 10, 11, 11, 11, 11, 11, 11, 11, 11, 12, 12];
delivery_time = [2, 1, 2, 1, 3, 2, 1, 2, 2, 2, 3, 4, 4, 4, 4, 4, 5, 6, 11, 6, 8, 6, 6, 9, 8, 8, 8, 8, 9, 10, 11, 9, 11, 10, 11, 11, 11, 11, 14, 14, 14, 12, 14, 12, 14, 14, 14, 14];

% transporter definition
total_capacity = 11000;
num_decks = 4;
capacity = [3000, 3000, 1000, 4000];

% ways out of decks
num_ways_out = 2;
paths_out = array3d(decks, ways_out, decks, [
% ways out of deck d1
2, 4, 0, 0, 3, 4, 0, 0, 

% ways out of deck d2
4, 0, 0, 0, 0, 0, 0, 0,	

% ways out of deck d3
4, 0, 0, 0, 0, 0, 0, 0,	

% ways out of deck d4
0, 0, 0, 0,	0, 0, 0, 0,	

]);

